8309
28, 12, 26, 47, 29, 30, 2, 7, 42, 21, 17, 3, 19, 41, 8, 9, 10, 45, 32, 49, 1, 22, 18, 31, 23, 20, 50, 16, 44, 46, 25, 4, 6, 38, 40, 39, 35, 36, 34, 37, 48, 24, 5, 15, 43, 33, 51, 11, 52, 14, 13, 27
